222 5
10 10 10 10 10 

0 0 0 0 0 0 2 2 14 
0 0 0 0 0 0 4 3 8 9 12 
6 1 0 0 0 0 1 4 
1 8 0 0 0 0 2 7 5 
9 7 0 0 0 0 1 6 
8 5 0 0 0 0 1 10 
8 5 0 0 0 0 1 11 
5 4 0 0 0 0 1 11 
10 7 0 0 0 0 1 10 
6 3 0 0 0 0 1 13 
6 5 0 0 0 0 1 13 
9 5 0 0 0 0 1 13 
0 0 0 0 0 0 2 66 78 
0 0 0 0 0 0 4 15 16 17 19 
9 2 2 1 1 1 5 26 25 21 20 18 
6 6 8 8 4 1 4 26 21 20 18 
10 4 4 6 3 5 2 25 18 
3 2 4 5 5 5 3 28 24 22 
5 8 1 7 5 7 3 28 24 22 
6 3 6 3 6 5 2 28 23 
10 6 6 8 5 4 1 22 
3 5 2 4 6 3 1 23 
5 4 2 5 5 4 4 34 32 31 27 
4 3 4 6 4 4 4 34 32 31 29 
6 2 3 3 8 5 3 32 29 28 
10 9 7 5 7 4 3 31 29 28 
3 10 2 4 2 8 1 29 
6 5 5 2 3 5 4 41 39 34 33 
1 5 6 5 6 6 1 30 
2 3 7 2 4 7 4 41 39 36 33 
8 6 6 2 4 2 3 41 36 33 
2 3 10 7 7 6 3 39 36 33 
3 7 4 7 5 6 2 37 35 
5 6 6 2 5 5 2 36 35 
6 3 7 4 7 10 1 38 
1 5 6 2 5 3 1 38 
9 6 4 6 4 7 1 38 
6 2 4 6 8 8 1 40 
5 3 10 9 5 6 1 40 
8 3 5 2 6 5 1 42 
6 2 7 5 6 7 1 42 
10 5 4 1 3 6 3 47 45 43 
1 8 3 5 5 3 1 44 
4 4 7 7 5 4 2 50 46 
6 9 7 7 9 5 1 46 
4 6 5 7 6 5 3 53 49 48 
10 8 7 4 4 6 2 53 48 
2 3 10 6 5 3 2 55 51 
8 10 2 2 5 4 2 55 51 
8 2 4 5 6 8 2 53 52 
8 2 3 9 6 4 1 52 
9 4 5 4 7 5 1 54 
4 8 6 2 4 7 1 54 
10 6 2 5 7 6 1 56 
3 4 4 6 4 6 1 56 
7 6 4 7 3 2 1 57 
9 8 8 6 4 9 2 60 58 
7 8 2 2 4 6 2 61 59 
8 3 3 3 4 2 2 64 62 
8 5 5 7 3 4 2 64 62 
8 5 2 9 7 3 2 64 63 
3 5 5 6 2 7 1 63 
5 4 6 5 8 2 1 65 
7 4 8 9 3 4 1 65 
0 0 0 0 0 0 1 222 
0 0 0 0 0 0 1 67 
7 0 0 0 0 2 2 72 68 
1 0 0 0 0 5 2 70 69 
1 0 0 0 0 6 3 76 73 71 
9 0 0 0 0 7 3 75 74 73 
5 0 0 0 0 10 1 74 
6 0 0 0 0 6 1 73 
7 0 0 0 0 4 1 77 
4 0 0 0 0 4 1 77 
5 0 0 0 0 2 1 77 
5 0 0 0 0 4 1 77 
0 0 0 0 0 0 2 120 132 
0 0 0 0 0 0 2 79 84 
8 0 2 1 4 1 2 118 80 
3 0 5 6 3 4 2 83 81 
8 0 5 1 5 3 4 107 91 88 82 
2 0 10 4 5 3 1 85 
6 0 4 1 4 4 4 107 106 89 87 
6 0 9 4 2 2 3 106 88 87 
3 0 4 8 1 9 2 89 86 
2 0 4 4 2 6 2 106 87 
8 0 6 7 6 2 3 109 103 90 
7 0 3 4 4 3 2 109 89 
1 0 3 5 10 4 4 117 103 95 92 
3 0 5 2 4 3 3 117 95 92 
7 0 10 4 6 6 3 109 103 93 
8 0 4 2 3 4 1 93 
9 0 5 5 4 4 2 114 94 
5 0 4 9 4 10 4 116 115 102 96 
3 0 5 2 9 4 4 114 113 102 97 
10 0 4 7 7 4 2 113 97 
10 0 6 7 5 7 2 105 98 
1 0 5 10 9 5 1 99 
5 0 4 4 9 2 2 112 100 
3 0 4 8 6 4 1 101 
9 0 4 5 5 8 2 111 104 
4 0 6 2 3 4 1 105 
1 0 4 7 7 6 1 104 
1 0 4 3 7 6 1 108 
4 0 7 4 5 7 1 108 
10 0 4 7 4 8 1 109 
6 0 6 5 7 7 1 109 
1 0 5 5 7 3 1 110 
6 0 4 5 4 6 1 111 
7 0 4 4 4 7 1 119 
6 0 5 5 7 4 1 119 
2 0 3 7 4 5 1 119 
3 0 9 7 6 9 1 119 
9 0 6 2 2 4 1 119 
5 0 2 7 3 4 1 119 
10 0 5 3 5 6 1 119 
1 0 4 9 4 7 1 119 
4 0 7 8 4 5 1 119 
0 0 0 0 0 0 1 222 
0 0 0 0 0 0 3 121 123 124 
2 0 0 2 0 0 1 122 
10 0 0 3 0 0 3 128 126 125 
7 0 0 8 0 0 1 125 
10 0 0 5 0 0 1 125 
3 0 0 5 0 0 2 130 129 
10 0 0 4 0 0 1 127 
3 0 0 10 0 0 1 129 
2 0 0 4 0 0 1 129 
5 0 0 6 0 0 1 131 
6 0 0 3 0 0 1 131 
0 0 0 0 0 0 2 164 186 
0 0 0 0 0 0 3 133 134 162 
10 1 1 0 2 0 2 161 135 
7 9 3 0 4 0 3 161 141 136 
8 8 4 0 1 0 2 141 136 
3 1 5 0 5 0 2 145 137 
9 3 4 0 5 0 3 160 159 138 
9 7 4 0 3 0 1 139 
2 5 7 0 5 0 2 149 140 
9 4 6 0 4 0 2 158 142 
4 1 5 0 5 0 3 158 145 144 
9 9 6 0 6 0 2 152 143 
3 6 8 0 5 0 1 144 
2 4 8 0 4 0 2 157 146 
8 6 5 0 5 0 1 146 
8 5 5 0 5 0 1 147 
7 8 7 0 5 0 3 156 151 148 
7 6 7 0 7 0 3 155 154 150 
5 5 3 0 10 0 2 156 155 
3 10 9 0 2 0 1 153 
8 4 4 0 4 0 1 154 
10 4 2 0 6 0 1 153 
3 4 4 0 4 0 1 163 
8 3 8 0 7 0 1 163 
8 4 3 0 5 0 1 163 
9 6 4 0 5 0 1 163 
8 5 3 0 7 0 1 163 
5 3 5 0 6 0 1 163 
6 5 6 0 6 0 1 163 
5 3 3 0 5 0 1 163 
2 4 6 0 6 0 1 163 
5 7 5 0 6 0 1 163 
0 0 0 0 0 0 1 222 
0 0 0 0 0 0 3 165 168 172 
5 0 0 1 0 1 2 175 166 
10 0 0 3 0 1 2 184 167 
8 0 0 8 0 4 3 183 173 169 
6 0 0 8 0 5 4 180 179 175 174 
2 0 0 4 0 6 2 177 170 
1 0 0 4 0 5 2 179 171 
9 0 0 7 0 6 2 182 174 
9 0 0 4 0 7 2 177 174 
10 0 0 4 0 6 1 174 
6 0 0 6 0 5 1 176 
6 0 0 7 0 3 1 177 
7 0 0 9 0 5 1 178 
9 0 0 7 0 8 1 178 
9 0 0 3 0 9 1 181 
4 0 0 4 0 3 1 182 
8 0 0 5 0 4 1 183 
9 0 0 5 0 7 1 185 
5 0 0 4 0 4 1 185 
7 0 0 3 0 6 1 185 
3 0 0 4 0 5 1 185 
0 0 0 0 0 0 1 222 
0 0 0 0 0 0 4 187 189 190 193 
2 0 1 0 0 0 2 196 188 
9 0 6 0 0 0 2 195 191 
9 0 4 0 0 0 2 195 191 
3 0 6 0 0 0 1 191 
1 0 5 0 0 0 1 192 
7 0 6 0 0 0 1 194 
10 0 7 0 0 0 1 196 
4 0 6 0 0 0 1 197 
4 0 4 0 0 0 1 197 
1 0 5 0 0 0 1 197 
0 0 0 0 0 0 2 198 210 
0 0 0 0 0 0 2 199 200 
10 0 0 1 0 0 1 201 
8 0 0 3 0 0 1 201 
4 0 0 6 0 0 2 204 202 
3 0 0 9 0 0 2 208 203 
5 0 0 1 0 0 3 207 206 205 
2 0 0 5 0 0 3 207 206 205 
1 0 0 6 0 0 1 209 
3 0 0 3 0 0 1 209 
1 0 0 8 0 0 1 209 
3 0 0 8 0 0 1 209 
0 0 0 0 0 0 1 222 
0 0 0 0 0 0 3 211 214 215 
2 0 0 0 1 0 2 213 212 
3 0 0 0 4 0 2 217 216 
10 0 0 0 4 0 1 216 
3 0 0 0 3 0 1 216 
6 0 0 0 7 0 1 216 
2 0 0 0 3 0 2 220 218 
1 0 0 0 6 0 2 220 218 
3 0 0 0 8 0 1 219 
4 0 0 0 5 0 1 221 
2 0 0 0 9 0 1 221 
0 0 0 0 0 0 1 222 
0 0 0 0 0 0 0 
